nK = 2599;
nT = 8;
nI = 21;
L = 29;
TT = 557;
np = 1;
nc = 3;
b = [67, 65, 23, 41, 54, 28, 32, 59, 66, 36, 30, 28, 67, 37, 58, 55, 48, 61, 66, 59, 55];
d = [140, 129, 144, 79, 108, 55, 142, 119, 134, 142, 122, 57, 140, 78, 94, 133, 74, 150, 124, 122, 145];
m = [1.8, 1.6, 1, 2.5, 1.5, 1.5, 1.2, 1.8, 1.1, 2.1, 2.3, 1.7, 1, 2.5, 2.3, 2.2, 1.3, 2.4, 1.3, 1.4, 2];
pt = [0.23, 0.21, 0.33, 0.25, 0.22, 0.22, 0.25, 0.24];
st = [10.35, 11.13, 17.49, 13.5, 11, 11.22, 13.25, 10.08];
arc = {<1, 0, 1, 1, 0, 0, 0, [1, 1, 1, 1, 1, 1, 1, 1]>, <2, 1, 2, 1, 0, 0, 0, [1, 1, 1, 1, 1, 1, 1, 1]>, <3, 2, 3, 1, 0, 0, 0, [1, 1, 1, 1, 1, 1, 1, 1]>, <4, 3, 4, 1, 0, 0, 0, [1, 1, 1, 1, 1, 1, 1, 1]>, <5, 4, 5, 1, 0, 0, 0, [1, 1, 1, 1, 1, 1, 1, 1]>, <6, 5, 6, 1, 0, 0, 0, [1, 1, 1, 1, 1, 1, 1, 1]>, <7, 6, 7, 1, 0, 0, 0, [1, 1, 1, 1, 1, 1, 1, 1]>, <8, 7, 8, 1, 0, 0, 0, [1, 1, 1, 1, 1, 1, 1, 1]>, <9, 8, 9, 1, 0, 0, 0, [1, 1, 1, 1, 1, 1, 1, 1]>, <10, 9, 10, 1, 0, 0, 0, [1, 1, 1, 1, 1, 1, 1, 1]>, <11, 10, 11, 1, 0, 0, 0, [1, 1, 1, 1, 1, 1, 1, 1]>, <12, 11, 12, 1, 0, 0, 0, [1, 1, 1, 1, 1, 1, 1, 1]>, <13, 12, 13, 1, 0, 0, 0, [1, 1, 1, 1, 1, 1, 1, 1]>, <14, 13, 14, 1, 0, 0, 0, [1, 1, 1, 1, 1, 1, 1, 1]>, <15, 14, 15, 1, 0, 0, 0, [1, 1, 1, 1, 1, 1, 1, 1]>, <16, 15, 16, 1, 0, 0, 0, [1, 1, 1, 1, 1, 1, 1, 1]>, <17, 16, 17, 1, 0, 0, 0, [1, 1, 1, 1, 1, 1, 1, 1]>, <18, 17, 18, 1, 0, 0, 0, [1, 1, 1, 1, 1, 1, 1, 1]>, <19, 18, 19, 1, 0, 0, 0, [1, 1, 1, 1, 1, 1, 1, 1]>, <20, 19, 20, 1, 0, 0, 0, [1, 1, 1, 1, 1, 1, 1, 1]>, <21, 20, 21, 1, 0, 0, 0, [1, 1, 1, 1, 1, 1, 1, 1]>, <22, 21, 22, 1, 0, 0, 0, [1, 1, 1, 1, 1, 1, 1, 1]>, <23, 22, 23, 1, 0, 0, 0, [1, 1, 1, 1, 1, 1, 1, 1]>, <24, 23, 24, 1, 0, 0, 0, [1, 1, 1, 1, 1, 1, 1, 1]>, <25, 24, 25, 1, 0, 0, 0, [1, 1, 1, 1, 1, 1, 1, 1]>, <26, 25, 26, 1, 0, 0, 0, [1, 1, 1, 1, 1, 1, 1, 1]>, <27, 26, 27, 1, 0, 0, 0, [1, 1, 1, 1, 1, 1, 1, 1]>, <28, 27, 28, 1, 0, 0, 0, [1, 1, 1, 1, 1, 1, 1, 1]>, <29, 28, 29, 1, 0, 0, 0, [1, 1, 1, 1, 1, 1, 1, 1]>, <30, 0, 16, 16, 1, 0, 1, [0, 1, 1, 1, 1, 0, 0, 0]>, <31, 1, 17, 16, 1, 0, 1, [0, 1, 1, 1, 1, 0, 0, 0]>, <32, 2, 18, 16, 1, 0, 1, [0, 1, 1, 1, 1, 0, 0, 0]>, <33, 3, 19, 16, 1, 0, 1, [0, 1, 1, 1, 1, 0, 0, 0]>, <34, 4, 20, 16, 1, 0, 1, [0, 1, 1, 1, 1, 0, 0, 0]>, <35, 5, 21, 16, 1, 0, 1, [0, 1, 1, 1, 1, 0, 0, 0]>, <36, 6, 22, 16, 1, 0, 1, [0, 1, 1, 1, 1, 0, 0, 0]>, <37, 7, 23, 16, 1, 0, 1, [0, 1, 1, 1, 1, 0, 0, 0]>, <38, 8, 24, 16, 1, 0, 1, [0, 1, 1, 1, 1, 0, 0, 0]>, <39, 9, 25, 16, 1, 0, 1, [0, 1, 1, 1, 1, 0, 0, 0]>, <40, 10, 26, 16, 1, 0, 1, [0, 1, 1, 1, 1, 0, 0, 0]>, <41, 11, 27, 16, 1, 0, 1, [0, 1, 1, 1, 1, 0, 0, 0]>, <42, 12, 28, 16, 1, 0, 1, [0, 1, 1, 1, 1, 0, 0, 0]>, <43, 13, 29, 16, 1, 0, 1, [0, 1, 1, 1, 1, 0, 0, 0]>, <44, 0, 18, 18, 2, 0, 1, [1, 1, 1, 1, 0, 0, 0, 0]>, <45, 1, 19, 18, 2, 0, 1, [1, 1, 1, 1, 0, 0, 0, 0]>, <46, 2, 20, 18, 2, 0, 1, [1, 1, 1, 1, 0, 0, 0, 0]>, <47, 3, 21, 18, 2, 0, 1, [1, 1, 1, 1, 0, 0, 0, 0]>, <48, 4, 22, 18, 2, 0, 1, [1, 1, 1, 1, 0, 0, 0, 0]>, <49, 5, 23, 18, 2, 0, 1, [1, 1, 1, 1, 0, 0, 0, 0]>, <50, 6, 24, 18, 2, 0, 1, [1, 1, 1, 1, 0, 0, 0, 0]>, <51, 7, 25, 18, 2, 0, 1, [1, 1, 1, 1, 0, 0, 0, 0]>, <52, 8, 26, 18, 2, 0, 1, [1, 1, 1, 1, 0, 0, 0, 0]>, <53, 9, 27, 18, 2, 0, 1, [1, 1, 1, 1, 0, 0, 0, 0]>, <54, 10, 28, 18, 2, 0, 1, [1, 1, 1, 1, 0, 0, 0, 0]>, <55, 11, 29, 18, 2, 0, 1, [1, 1, 1, 1, 0, 0, 0, 0]>, <56, 0, 18, 18, 3, 0, 0, [0, 0, 0, 1, 1, 1, 1, 0]>, <57, 1, 19, 18, 3, 0, 0, [0, 0, 0, 1, 1, 1, 1, 0]>, <58, 2, 20, 18, 3, 0, 0, [0, 0, 0, 1, 1, 1, 1, 0]>, <59, 3, 21, 18, 3, 0, 0, [0, 0, 0, 1, 1, 1, 1, 0]>, <60, 4, 22, 18, 3, 0, 0, [0, 0, 0, 1, 1, 1, 1, 0]>, <61, 5, 23, 18, 3, 0, 0, [0, 0, 0, 1, 1, 1, 1, 0]>, <62, 6, 24, 18, 3, 0, 0, [0, 0, 0, 1, 1, 1, 1, 0]>, <63, 7, 25, 18, 3, 0, 0, [0, 0, 0, 1, 1, 1, 1, 0]>, <64, 8, 26, 18, 3, 0, 0, [0, 0, 0, 1, 1, 1, 1, 0]>, <65, 9, 27, 18, 3, 0, 0, [0, 0, 0, 1, 1, 1, 1, 0]>, <66, 10, 28, 18, 3, 0, 0, [0, 0, 0, 1, 1, 1, 1, 0]>, <67, 11, 29, 18, 3, 0, 0, [0, 0, 0, 1, 1, 1, 1, 0]>, <68, 0, 13, 13, 4, 0, 1, [0, 0, 1, 1, 1, 1, 0, 0]>, <69, 1, 14, 13, 4, 0, 1, [0, 0, 1, 1, 1, 1, 0, 0]>, <70, 2, 15, 13, 4, 0, 1, [0, 0, 1, 1, 1, 1, 0, 0]>, <71, 3, 16, 13, 4, 0, 1, [0, 0, 1, 1, 1, 1, 0, 0]>, <72, 4, 17, 13, 4, 0, 1, [0, 0, 1, 1, 1, 1, 0, 0]>, <73, 5, 18, 13, 4, 0, 1, [0, 0, 1, 1, 1, 1, 0, 0]>, <74, 7, 20, 13, 4, 0, 1, [0, 0, 1, 1, 1, 1, 0, 0]>, <75, 8, 21, 13, 4, 0, 1, [0, 0, 1, 1, 1, 1, 0, 0]>, <76, 9, 22, 13, 4, 0, 1, [0, 0, 1, 1, 1, 1, 0, 0]>, <77, 10, 23, 13, 4, 0, 1, [0, 0, 1, 1, 1, 1, 0, 0]>, <78, 11, 24, 13, 4, 0, 1, [0, 0, 1, 1, 1, 1, 0, 0]>, <79, 12, 25, 13, 4, 0, 1, [0, 0, 1, 1, 1, 1, 0, 0]>, <80, 13, 26, 13, 4, 0, 1, [0, 0, 1, 1, 1, 1, 0, 0]>, <81, 14, 27, 13, 4, 0, 1, [0, 0, 1, 1, 1, 1, 0, 0]>, <82, 15, 28, 13, 4, 0, 1, [0, 0, 1, 1, 1, 1, 0, 0]>, <83, 16, 29, 13, 4, 0, 1, [0, 0, 1, 1, 1, 1, 0, 0]>, <84, 0, 15, 15, 5, 0, 1, [1, 1, 0, 0, 0, 0, 1, 1]>, <85, 1, 16, 15, 5, 0, 1, [1, 1, 0, 0, 0, 0, 1, 1]>, <86, 2, 17, 15, 5, 0, 1, [1, 1, 0, 0, 0, 0, 1, 1]>, <87, 3, 18, 15, 5, 0, 1, [1, 1, 0, 0, 0, 0, 1, 1]>, <88, 4, 19, 15, 5, 0, 1, [1, 1, 0, 0, 0, 0, 1, 1]>, <89, 5, 20, 15, 5, 0, 1, [1, 1, 0, 0, 0, 0, 1, 1]>, <90, 6, 21, 15, 5, 0, 1, [1, 1, 0, 0, 0, 0, 1, 1]>, <91, 7, 22, 15, 5, 0, 1, [1, 1, 0, 0, 0, 0, 1, 1]>, <92, 8, 23, 15, 5, 0, 1, [1, 1, 0, 0, 0, 0, 1, 1]>, <93, 9, 24, 15, 5, 0, 1, [1, 1, 0, 0, 0, 0, 1, 1]>, <94, 10, 25, 15, 5, 0, 1, [1, 1, 0, 0, 0, 0, 1, 1]>, <95, 11, 26, 15, 5, 0, 1, [1, 1, 0, 0, 0, 0, 1, 1]>, <96, 12, 27, 15, 5, 0, 1, [1, 1, 0, 0, 0, 0, 1, 1]>, <97, 13, 28, 15, 5, 0, 1, [1, 1, 0, 0, 0, 0, 1, 1]>, <98, 14, 29, 15, 5, 0, 1, [1, 1, 0, 0, 0, 0, 1, 1]>, <99, 0, 16, 16, 6, 0, 1, [0, 1, 1, 1, 1, 0, 0, 0]>, <100, 1, 17, 16, 6, 0, 1, [0, 1, 1, 1, 1, 0, 0, 0]>, <101, 2, 18, 16, 6, 0, 1, [0, 1, 1, 1, 1, 0, 0, 0]>, <102, 3, 19, 16, 6, 0, 1, [0, 1, 1, 1, 1, 0, 0, 0]>, <103, 4, 20, 16, 6, 0, 1, [0, 1, 1, 1, 1, 0, 0, 0]>, <104, 5, 21, 16, 6, 0, 1, [0, 1, 1, 1, 1, 0, 0, 0]>, <105, 6, 22, 16, 6, 0, 1, [0, 1, 1, 1, 1, 0, 0, 0]>, <106, 7, 23, 16, 6, 0, 1, [0, 1, 1, 1, 1, 0, 0, 0]>, <107, 8, 24, 16, 6, 0, 1, [0, 1, 1, 1, 1, 0, 0, 0]>, <108, 9, 25, 16, 6, 0, 1, [0, 1, 1, 1, 1, 0, 0, 0]>, <109, 10, 26, 16, 6, 0, 1, [0, 1, 1, 1, 1, 0, 0, 0]>, <110, 11, 27, 16, 6, 0, 1, [0, 1, 1, 1, 1, 0, 0, 0]>, <111, 12, 28, 16, 6, 0, 1, [0, 1, 1, 1, 1, 0, 0, 0]>, <112, 13, 29, 16, 6, 0, 1, [0, 1, 1, 1, 1, 0, 0, 0]>, <113, 0, 14, 14, 7, 0, 1, [0, 0, 0, 0, 1, 1, 1, 1]>, <114, 1, 15, 14, 7, 0, 1, [0, 0, 0, 0, 1, 1, 1, 1]>, <115, 2, 16, 14, 7, 0, 1, [0, 0, 0, 0, 1, 1, 1, 1]>, <116, 3, 17, 14, 7, 0, 1, [0, 0, 0, 0, 1, 1, 1, 1]>, <117, 4, 18, 14, 7, 0, 1, [0, 0, 0, 0, 1, 1, 1, 1]>, <118, 5, 19, 14, 7, 0, 1, [0, 0, 0, 0, 1, 1, 1, 1]>, <119, 6, 20, 14, 7, 0, 1, [0, 0, 0, 0, 1, 1, 1, 1]>, <120, 7, 21, 14, 7, 0, 1, [0, 0, 0, 0, 1, 1, 1, 1]>, <121, 8, 22, 14, 7, 0, 1, [0, 0, 0, 0, 1, 1, 1, 1]>, <122, 9, 23, 14, 7, 0, 1, [0, 0, 0, 0, 1, 1, 1, 1]>, <123, 10, 24, 14, 7, 0, 1, [0, 0, 0, 0, 1, 1, 1, 1]>, <124, 11, 25, 14, 7, 0, 1, [0, 0, 0, 0, 1, 1, 1, 1]>, <125, 12, 26, 14, 7, 0, 1, [0, 0, 0, 0, 1, 1, 1, 1]>, <126, 13, 27, 14, 7, 0, 1, [0, 0, 0, 0, 1, 1, 1, 1]>, <127, 14, 28, 14, 7, 0, 1, [0, 0, 0, 0, 1, 1, 1, 1]>, <128, 15, 29, 14, 7, 0, 1, [0, 0, 0, 0, 1, 1, 1, 1]>, <129, 0, 16, 16, 8, 0, 0, [0, 1, 1, 1, 1, 0, 0, 0]>, <130, 1, 17, 16, 8, 0, 0, [0, 1, 1, 1, 1, 0, 0, 0]>, <131, 2, 18, 16, 8, 0, 0, [0, 1, 1, 1, 1, 0, 0, 0]>, <132, 3, 19, 16, 8, 0, 0, [0, 1, 1, 1, 1, 0, 0, 0]>, <133, 4, 20, 16, 8, 0, 0, [0, 1, 1, 1, 1, 0, 0, 0]>, <134, 5, 21, 16, 8, 0, 0, [0, 1, 1, 1, 1, 0, 0, 0]>, <135, 6, 22, 16, 8, 0, 0, [0, 1, 1, 1, 1, 0, 0, 0]>, <136, 7, 23, 16, 8, 0, 0, [0, 1, 1, 1, 1, 0, 0, 0]>, <137, 8, 24, 16, 8, 0, 0, [0, 1, 1, 1, 1, 0, 0, 0]>, <138, 9, 25, 16, 8, 0, 0, [0, 1, 1, 1, 1, 0, 0, 0]>, <139, 10, 26, 16, 8, 0, 0, [0, 1, 1, 1, 1, 0, 0, 0]>, <140, 11, 27, 16, 8, 0, 0, [0, 1, 1, 1, 1, 0, 0, 0]>, <141, 12, 28, 16, 8, 0, 0, [0, 1, 1, 1, 1, 0, 0, 0]>, <142, 13, 29, 16, 8, 0, 0, [0, 1, 1, 1, 1, 0, 0, 0]>, <143, 0, 14, 14, 9, 0, 1, [1, 1, 1, 0, 0, 0, 0, 1]>, <144, 1, 15, 14, 9, 0, 1, [1, 1, 1, 0, 0, 0, 0, 1]>, <145, 2, 16, 14, 9, 0, 1, [1, 1, 1, 0, 0, 0, 0, 1]>, <146, 3, 17, 14, 9, 0, 1, [1, 1, 1, 0, 0, 0, 0, 1]>, <147, 4, 18, 14, 9, 0, 1, [1, 1, 1, 0, 0, 0, 0, 1]>, <148, 5, 19, 14, 9, 0, 1, [1, 1, 1, 0, 0, 0, 0, 1]>, <149, 6, 20, 14, 9, 0, 1, [1, 1, 1, 0, 0, 0, 0, 1]>, <150, 7, 21, 14, 9, 0, 1, [1, 1, 1, 0, 0, 0, 0, 1]>, <151, 8, 22, 14, 9, 0, 1, [1, 1, 1, 0, 0, 0, 0, 1]>, <152, 9, 23, 14, 9, 0, 1, [1, 1, 1, 0, 0, 0, 0, 1]>, <153, 10, 24, 14, 9, 0, 1, [1, 1, 1, 0, 0, 0, 0, 1]>, <154, 11, 25, 14, 9, 0, 1, [1, 1, 1, 0, 0, 0, 0, 1]>, <155, 12, 26, 14, 9, 0, 1, [1, 1, 1, 0, 0, 0, 0, 1]>, <156, 13, 27, 14, 9, 0, 1, [1, 1, 1, 0, 0, 0, 0, 1]>, <157, 14, 28, 14, 9, 0, 1, [1, 1, 1, 0, 0, 0, 0, 1]>, <158, 15, 29, 14, 9, 0, 1, [1, 1, 1, 0, 0, 0, 0, 1]>, <159, 0, 15, 15, 10, 1, 0, [0, 0, 0, 0, 1, 1, 1, 1]>, <160, 1, 16, 15, 10, 1, 0, [0, 0, 0, 0, 1, 1, 1, 1]>, <161, 2, 17, 15, 10, 1, 0, [0, 0, 0, 0, 1, 1, 1, 1]>, <162, 3, 18, 15, 10, 1, 0, [0, 0, 0, 0, 1, 1, 1, 1]>, <163, 4, 19, 15, 10, 1, 0, [0, 0, 0, 0, 1, 1, 1, 1]>, <164, 5, 20, 15, 10, 1, 0, [0, 0, 0, 0, 1, 1, 1, 1]>, <165, 6, 21, 15, 10, 1, 0, [0, 0, 0, 0, 1, 1, 1, 1]>, <166, 7, 22, 15, 10, 1, 0, [0, 0, 0, 0, 1, 1, 1, 1]>, <167, 8, 23, 15, 10, 1, 0, [0, 0, 0, 0, 1, 1, 1, 1]>, <168, 9, 24, 15, 10, 1, 0, [0, 0, 0, 0, 1, 1, 1, 1]>, <169, 10, 25, 15, 10, 1, 0, [0, 0, 0, 0, 1, 1, 1, 1]>, <170, 11, 26, 15, 10, 1, 0, [0, 0, 0, 0, 1, 1, 1, 1]>, <171, 12, 27, 15, 10, 1, 0, [0, 0, 0, 0, 1, 1, 1, 1]>, <172, 13, 28, 15, 10, 1, 0, [0, 0, 0, 0, 1, 1, 1, 1]>, <173, 14, 29, 15, 10, 1, 0, [0, 0, 0, 0, 1, 1, 1, 1]>, <174, 0, 17, 17, 11, 0, 0, [1, 1, 0, 0, 0, 0, 1, 1]>, <175, 1, 18, 17, 11, 0, 0, [1, 1, 0, 0, 0, 0, 1, 1]>, <176, 2, 19, 17, 11, 0, 0, [1, 1, 0, 0, 0, 0, 1, 1]>, <177, 3, 20, 17, 11, 0, 0, [1, 1, 0, 0, 0, 0, 1, 1]>, <178, 4, 21, 17, 11, 0, 0, [1, 1, 0, 0, 0, 0, 1, 1]>, <179, 5, 22, 17, 11, 0, 0, [1, 1, 0, 0, 0, 0, 1, 1]>, <180, 6, 23, 17, 11, 0, 0, [1, 1, 0, 0, 0, 0, 1, 1]>, <181, 7, 24, 17, 11, 0, 0, [1, 1, 0, 0, 0, 0, 1, 1]>, <182, 8, 25, 17, 11, 0, 0, [1, 1, 0, 0, 0, 0, 1, 1]>, <183, 9, 26, 17, 11, 0, 0, [1, 1, 0, 0, 0, 0, 1, 1]>, <184, 10, 27, 17, 11, 0, 0, [1, 1, 0, 0, 0, 0, 1, 1]>, <185, 11, 28, 17, 11, 0, 0, [1, 1, 0, 0, 0, 0, 1, 1]>, <186, 12, 29, 17, 11, 0, 0, [1, 1, 0, 0, 0, 0, 1, 1]>, <187, 0, 16, 16, 12, 0, 0, [0, 0, 1, 1, 1, 1, 0, 0]>, <188, 1, 17, 16, 12, 0, 0, [0, 0, 1, 1, 1, 1, 0, 0]>, <189, 2, 18, 16, 12, 0, 0, [0, 0, 1, 1, 1, 1, 0, 0]>, <190, 3, 19, 16, 12, 0, 0, [0, 0, 1, 1, 1, 1, 0, 0]>, <191, 4, 20, 16, 12, 0, 0, [0, 0, 1, 1, 1, 1, 0, 0]>, <192, 5, 21, 16, 12, 0, 0, [0, 0, 1, 1, 1, 1, 0, 0]>, <193, 6, 22, 16, 12, 0, 0, [0, 0, 1, 1, 1, 1, 0, 0]>, <194, 7, 23, 16, 12, 0, 0, [0, 0, 1, 1, 1, 1, 0, 0]>, <195, 8, 24, 16, 12, 0, 0, [0, 0, 1, 1, 1, 1, 0, 0]>, <196, 9, 25, 16, 12, 0, 0, [0, 0, 1, 1, 1, 1, 0, 0]>, <197, 10, 26, 16, 12, 0, 0, [0, 0, 1, 1, 1, 1, 0, 0]>, <198, 11, 27, 16, 12, 0, 0, [0, 0, 1, 1, 1, 1, 0, 0]>, <199, 12, 28, 16, 12, 0, 0, [0, 0, 1, 1, 1, 1, 0, 0]>, <200, 13, 29, 16, 12, 0, 0, [0, 0, 1, 1, 1, 1, 0, 0]>, <201, 0, 15, 15, 13, 0, 1, [0, 0, 0, 1, 1, 1, 1, 0]>, <202, 1, 16, 15, 13, 0, 1, [0, 0, 0, 1, 1, 1, 1, 0]>, <203, 2, 17, 15, 13, 0, 1, [0, 0, 0, 1, 1, 1, 1, 0]>, <204, 3, 18, 15, 13, 0, 1, [0, 0, 0, 1, 1, 1, 1, 0]>, <205, 4, 19, 15, 13, 0, 1, [0, 0, 0, 1, 1, 1, 1, 0]>, <206, 5, 20, 15, 13, 0, 1, [0, 0, 0, 1, 1, 1, 1, 0]>, <207, 6, 21, 15, 13, 0, 1, [0, 0, 0, 1, 1, 1, 1, 0]>, <208, 7, 22, 15, 13, 0, 1, [0, 0, 0, 1, 1, 1, 1, 0]>, <209, 8, 23, 15, 13, 0, 1, [0, 0, 0, 1, 1, 1, 1, 0]>, <210, 9, 24, 15, 13, 0, 1, [0, 0, 0, 1, 1, 1, 1, 0]>, <211, 10, 25, 15, 13, 0, 1, [0, 0, 0, 1, 1, 1, 1, 0]>, <212, 11, 26, 15, 13, 0, 1, [0, 0, 0, 1, 1, 1, 1, 0]>, <213, 12, 27, 15, 13, 0, 1, [0, 0, 0, 1, 1, 1, 1, 0]>, <214, 13, 28, 15, 13, 0, 1, [0, 0, 0, 1, 1, 1, 1, 0]>, <215, 14, 29, 15, 13, 0, 1, [0, 0, 0, 1, 1, 1, 1, 0]>, <216, 0, 16, 16, 14, 0, 0, [1, 1, 0, 0, 0, 0, 1, 1]>, <217, 1, 17, 16, 14, 0, 0, [1, 1, 0, 0, 0, 0, 1, 1]>, <218, 2, 18, 16, 14, 0, 0, [1, 1, 0, 0, 0, 0, 1, 1]>, <219, 3, 19, 16, 14, 0, 0, [1, 1, 0, 0, 0, 0, 1, 1]>, <220, 4, 20, 16, 14, 0, 0, [1, 1, 0, 0, 0, 0, 1, 1]>, <221, 5, 21, 16, 14, 0, 0, [1, 1, 0, 0, 0, 0, 1, 1]>, <222, 6, 22, 16, 14, 0, 0, [1, 1, 0, 0, 0, 0, 1, 1]>, <223, 7, 23, 16, 14, 0, 0, [1, 1, 0, 0, 0, 0, 1, 1]>, <224, 8, 24, 16, 14, 0, 0, [1, 1, 0, 0, 0, 0, 1, 1]>, <225, 9, 25, 16, 14, 0, 0, [1, 1, 0, 0, 0, 0, 1, 1]>, <226, 10, 26, 16, 14, 0, 0, [1, 1, 0, 0, 0, 0, 1, 1]>, <227, 11, 27, 16, 14, 0, 0, [1, 1, 0, 0, 0, 0, 1, 1]>, <228, 12, 28, 16, 14, 0, 0, [1, 1, 0, 0, 0, 0, 1, 1]>, <229, 13, 29, 16, 14, 0, 0, [1, 1, 0, 0, 0, 0, 1, 1]>, <230, 0, 17, 17, 15, 1, 0, [1, 1, 1, 0, 0, 0, 0, 1]>, <231, 1, 18, 17, 15, 1, 0, [1, 1, 1, 0, 0, 0, 0, 1]>, <232, 2, 19, 17, 15, 1, 0, [1, 1, 1, 0, 0, 0, 0, 1]>, <233, 3, 20, 17, 15, 1, 0, [1, 1, 1, 0, 0, 0, 0, 1]>, <234, 4, 21, 17, 15, 1, 0, [1, 1, 1, 0, 0, 0, 0, 1]>, <235, 5, 22, 17, 15, 1, 0, [1, 1, 1, 0, 0, 0, 0, 1]>, <236, 6, 23, 17, 15, 1, 0, [1, 1, 1, 0, 0, 0, 0, 1]>, <237, 7, 24, 17, 15, 1, 0, [1, 1, 1, 0, 0, 0, 0, 1]>, <238, 8, 25, 17, 15, 1, 0, [1, 1, 1, 0, 0, 0, 0, 1]>, <239, 9, 26, 17, 15, 1, 0, [1, 1, 1, 0, 0, 0, 0, 1]>, <240, 10, 27, 17, 15, 1, 0, [1, 1, 1, 0, 0, 0, 0, 1]>, <241, 11, 28, 17, 15, 1, 0, [1, 1, 1, 0, 0, 0, 0, 1]>, <242, 12, 29, 17, 15, 1, 0, [1, 1, 1, 0, 0, 0, 0, 1]>, <243, 0, 15, 15, 16, 0, 0, [0, 0, 1, 1, 1, 1, 0, 0]>, <244, 1, 16, 15, 16, 0, 0, [0, 0, 1, 1, 1, 1, 0, 0]>, <245, 2, 17, 15, 16, 0, 0, [0, 0, 1, 1, 1, 1, 0, 0]>, <246, 3, 18, 15, 16, 0, 0, [0, 0, 1, 1, 1, 1, 0, 0]>, <247, 4, 19, 15, 16, 0, 0, [0, 0, 1, 1, 1, 1, 0, 0]>, <248, 5, 20, 15, 16, 0, 0, [0, 0, 1, 1, 1, 1, 0, 0]>, <249, 6, 21, 15, 16, 0, 0, [0, 0, 1, 1, 1, 1, 0, 0]>, <250, 7, 22, 15, 16, 0, 0, [0, 0, 1, 1, 1, 1, 0, 0]>, <251, 8, 23, 15, 16, 0, 0, [0, 0, 1, 1, 1, 1, 0, 0]>, <252, 9, 24, 15, 16, 0, 0, [0, 0, 1, 1, 1, 1, 0, 0]>, <253, 10, 25, 15, 16, 0, 0, [0, 0, 1, 1, 1, 1, 0, 0]>, <254, 11, 26, 15, 16, 0, 0, [0, 0, 1, 1, 1, 1, 0, 0]>, <255, 12, 27, 15, 16, 0, 0, [0, 0, 1, 1, 1, 1, 0, 0]>, <256, 13, 28, 15, 16, 0, 0, [0, 0, 1, 1, 1, 1, 0, 0]>, <257, 14, 29, 15, 16, 0, 0, [0, 0, 1, 1, 1, 1, 0, 0]>, <258, 0, 17, 17, 17, 0, 0, [1, 1, 1, 1, 0, 0, 0, 0]>, <259, 1, 18, 17, 17, 0, 0, [1, 1, 1, 1, 0, 0, 0, 0]>, <260, 2, 19, 17, 17, 0, 0, [1, 1, 1, 1, 0, 0, 0, 0]>, <261, 3, 20, 17, 17, 0, 0, [1, 1, 1, 1, 0, 0, 0, 0]>, <262, 4, 21, 17, 17, 0, 0, [1, 1, 1, 1, 0, 0, 0, 0]>, <263, 5, 22, 17, 17, 0, 0, [1, 1, 1, 1, 0, 0, 0, 0]>, <264, 6, 23, 17, 17, 0, 0, [1, 1, 1, 1, 0, 0, 0, 0]>, <265, 7, 24, 17, 17, 0, 0, [1, 1, 1, 1, 0, 0, 0, 0]>, <266, 8, 25, 17, 17, 0, 0, [1, 1, 1, 1, 0, 0, 0, 0]>, <267, 9, 26, 17, 17, 0, 0, [1, 1, 1, 1, 0, 0, 0, 0]>, <268, 10, 27, 17, 17, 0, 0, [1, 1, 1, 1, 0, 0, 0, 0]>, <269, 11, 28, 17, 17, 0, 0, [1, 1, 1, 1, 0, 0, 0, 0]>, <270, 12, 29, 17, 17, 0, 0, [1, 1, 1, 1, 0, 0, 0, 0]>, <271, 0, 17, 17, 18, 0, 0, [1, 1, 0, 0, 0, 0, 1, 1]>, <272, 1, 18, 17, 18, 0, 0, [1, 1, 0, 0, 0, 0, 1, 1]>, <273, 2, 19, 17, 18, 0, 0, [1, 1, 0, 0, 0, 0, 1, 1]>, <274, 3, 20, 17, 18, 0, 0, [1, 1, 0, 0, 0, 0, 1, 1]>, <275, 4, 21, 17, 18, 0, 0, [1, 1, 0, 0, 0, 0, 1, 1]>, <276, 5, 22, 17, 18, 0, 0, [1, 1, 0, 0, 0, 0, 1, 1]>, <277, 6, 23, 17, 18, 0, 0, [1, 1, 0, 0, 0, 0, 1, 1]>, <278, 7, 24, 17, 18, 0, 0, [1, 1, 0, 0, 0, 0, 1, 1]>, <279, 8, 25, 17, 18, 0, 0, [1, 1, 0, 0, 0, 0, 1, 1]>, <280, 9, 26, 17, 18, 0, 0, [1, 1, 0, 0, 0, 0, 1, 1]>, <281, 10, 27, 17, 18, 0, 0, [1, 1, 0, 0, 0, 0, 1, 1]>, <282, 11, 28, 17, 18, 0, 0, [1, 1, 0, 0, 0, 0, 1, 1]>, <283, 12, 29, 17, 18, 0, 0, [1, 1, 0, 0, 0, 0, 1, 1]>, <284, 0, 17, 17, 19, 0, 0, [0, 1, 1, 1, 1, 0, 0, 0]>, <285, 1, 18, 17, 19, 0, 0, [0, 1, 1, 1, 1, 0, 0, 0]>, <286, 2, 19, 17, 19, 0, 0, [0, 1, 1, 1, 1, 0, 0, 0]>, <287, 3, 20, 17, 19, 0, 0, [0, 1, 1, 1, 1, 0, 0, 0]>, <288, 4, 21, 17, 19, 0, 0, [0, 1, 1, 1, 1, 0, 0, 0]>, <289, 5, 22, 17, 19, 0, 0, [0, 1, 1, 1, 1, 0, 0, 0]>, <290, 6, 23, 17, 19, 0, 0, [0, 1, 1, 1, 1, 0, 0, 0]>, <291, 7, 24, 17, 19, 0, 0, [0, 1, 1, 1, 1, 0, 0, 0]>, <292, 8, 25, 17, 19, 0, 0, [0, 1, 1, 1, 1, 0, 0, 0]>, <293, 9, 26, 17, 19, 0, 0, [0, 1, 1, 1, 1, 0, 0, 0]>, <294, 10, 27, 17, 19, 0, 0, [0, 1, 1, 1, 1, 0, 0, 0]>, <295, 11, 28, 17, 19, 0, 0, [0, 1, 1, 1, 1, 0, 0, 0]>, <296, 12, 29, 17, 19, 0, 0, [0, 1, 1, 1, 1, 0, 0, 0]>, <297, 0, 14, 14, 20, 0, 0, [1, 0, 0, 0, 0, 1, 1, 1]>, <298, 1, 15, 14, 20, 0, 0, [1, 0, 0, 0, 0, 1, 1, 1]>, <299, 2, 16, 14, 20, 0, 0, [1, 0, 0, 0, 0, 1, 1, 1]>, <300, 3, 17, 14, 20, 0, 0, [1, 0, 0, 0, 0, 1, 1, 1]>, <301, 4, 18, 14, 20, 0, 0, [1, 0, 0, 0, 0, 1, 1, 1]>, <302, 5, 19, 14, 20, 0, 0, [1, 0, 0, 0, 0, 1, 1, 1]>, <303, 6, 20, 14, 20, 0, 0, [1, 0, 0, 0, 0, 1, 1, 1]>, <304, 7, 21, 14, 20, 0, 0, [1, 0, 0, 0, 0, 1, 1, 1]>, <305, 8, 22, 14, 20, 0, 0, [1, 0, 0, 0, 0, 1, 1, 1]>, <306, 9, 23, 14, 20, 0, 0, [1, 0, 0, 0, 0, 1, 1, 1]>, <307, 10, 24, 14, 20, 0, 0, [1, 0, 0, 0, 0, 1, 1, 1]>, <308, 11, 25, 14, 20, 0, 0, [1, 0, 0, 0, 0, 1, 1, 1]>, <309, 12, 26, 14, 20, 0, 0, [1, 0, 0, 0, 0, 1, 1, 1]>, <310, 13, 27, 14, 20, 0, 0, [1, 0, 0, 0, 0, 1, 1, 1]>, <311, 14, 28, 14, 20, 0, 0, [1, 0, 0, 0, 0, 1, 1, 1]>, <312, 15, 29, 14, 20, 0, 0, [1, 0, 0, 0, 0, 1, 1, 1]>, <313, 0, 15, 15, 21, 0, 0, [1, 1, 1, 0, 0, 0, 0, 1]>, <314, 1, 16, 15, 21, 0, 0, [1, 1, 1, 0, 0, 0, 0, 1]>, <315, 2, 17, 15, 21, 0, 0, [1, 1, 1, 0, 0, 0, 0, 1]>, <316, 3, 18, 15, 21, 0, 0, [1, 1, 1, 0, 0, 0, 0, 1]>, <317, 4, 19, 15, 21, 0, 0, [1, 1, 1, 0, 0, 0, 0, 1]>, <318, 5, 20, 15, 21, 0, 0, [1, 1, 1, 0, 0, 0, 0, 1]>, <319, 6, 21, 15, 21, 0, 0, [1, 1, 1, 0, 0, 0, 0, 1]>, <320, 7, 22, 15, 21, 0, 0, [1, 1, 1, 0, 0, 0, 0, 1]>, <321, 8, 23, 15, 21, 0, 0, [1, 1, 1, 0, 0, 0, 0, 1]>, <322, 9, 24, 15, 21, 0, 0, [1, 1, 1, 0, 0, 0, 0, 1]>, <323, 10, 25, 15, 21, 0, 0, [1, 1, 1, 0, 0, 0, 0, 1]>, <324, 11, 26, 15, 21, 0, 0, [1, 1, 1, 0, 0, 0, 0, 1]>, <325, 12, 27, 15, 21, 0, 0, [1, 1, 1, 0, 0, 0, 0, 1]>, <326, 13, 28, 15, 21, 0, 0, [1, 1, 1, 0, 0, 0, 0, 1]>, <327, 14, 29, 15, 21, 0, 0, [1, 1, 1, 0, 0, 0, 0, 1]>};
